 &control
   calculation     = 'scf'
   prefix          = 'GS'
   restart_mode    = 'from_scratch'
   wf_collect      = .false.
   pseudo_dir      = '../PP/'
   outdir          = './'
   verbosity       = 'high'
   tprnfor         = .true.
   tstress         = .true.
 /
 &system
   ecutwfc     =120
   ecutrho     =800
   nbnd        =190
   nat         =30
   ntyp        =4
   ibrav       =0
   noncolin    = .false.
   lspinorb    = .false.
   occupations = 'smearing'
   degauss     = 0.001
   smearing    = 'gauss'
   vdw_corr    = 'xdm'
   xdm_a1      =0.3275
   xdm_a2      =2.7673
  /
 &electrons
   diagonalization = 'david'
   mixing_beta     =0.7
   conv_thr        =1e-08
/
ATOMIC_SPECIES
Ca 40.0780 Ca.pbe-spn-kjpaw_psl.1.0.0.UPF
N  14.0067 N.pbe-n-kjpaw_psl.1.0.0.UPF
Mo 95.96 Mo.pbe-spn-kjpaw_psl.1.0.0.UPF
S  32.065 S.pbe-n-kjpaw_psl.1.0.0.UPF



CELL_PARAMETERS (angstrom)
  6.354820335   0.000016855     0.000000000
 -3.177395624   5.503426247     0.000000000
  0.000000000   0.000000000    35.000000000

ATOMIC_POSITIONS (angstrom)
Ca      -0.435047344  -0.088193405   7.717135430
Ca       3.779208883  -0.045906193  10.103693024
Ca      -2.575284554   3.622966118  10.134469215
Ca      -0.505152184   3.624702932   7.716428220
Ca       0.601656956   1.788643186  10.102502863
Ca       2.744663012   1.829100433   7.716769577
N       -1.513733534   1.784129443   8.908044295
N        1.663041151  -0.041065405   8.908338430
N        1.655183719   3.622698902   8.908282469
Ca      -0.443651592  -0.044091277  15.803734658
Ca      -1.502965185   1.789246449  13.382051814
Ca       1.674402600  -0.042668092  13.382001702
Ca      -0.444272908   3.625190288  15.803771927
Ca       1.672212137   3.625134299  13.382285196
Ca       2.733729974   1.790944413  15.803787411
N        0.615246178   1.790648312  14.706545426
N       -2.562241171   3.625208062  14.707691790
N        3.792774683  -0.043919739  14.706444745
Mo       0.603895372   1.785949627   3.717196993
S        2.212422803   0.835082988   2.199360930
S        2.181622155   0.820551640   5.241862391
Mo       3.754287085   1.926614792   3.739909174
S        5.330795627   0.868529884   2.199358579
S        5.333628143   0.902560317   5.241425152
Mo      -1.093135063   4.444239725   3.739886354
S        0.622985668   3.654377234   2.199232017
S        0.651072477   3.634881000   5.241760422
Mo       2.327451132   4.490799564   3.739795673
S        3.781097459   3.620544407   2.043315293
S        3.780809595   3.620893995   5.497715455


K_POINTS   automatic
    7 7 1 0 0 0 


K_POINTS   automatic
    7 7 1 0 0 0 
